\ This file was automatically generated by Zimpl
\ set f := {1, 2};
\ set d := {1 to 4};
\ set fd := f * d;
\ param F[f] := <1> 80000, <2> 65000;
\ param D[d] := <1> 75000, <2> 20000, <3> 30000, <4> 50000;
\ param C[fd] :=                  <1,1> 50, <1,2> 10, <1,3> 70, <1,4> 30,                 <2,1> 60, <2,2> 40, <2,3> 60, <2,4> 2
\ 0;
\ param T[d] := <1> 0.5, <2> 0.3, <3> 0.2, <4> 0.0;
\ var Xe[fd] >= 0;
\ var Xne[d] >= 0;
\ minimize custo :         sum <fx, dx> in fd : Xe[fx, dx] * C[fx, dx] +         sum <dx> in d : Xne[dx] * T[dx];
\ subto c1 :         forall <fx> in f :                 sum <fx, dx> in fd : Xe[fx, dx] <= F[fx];
\ subto c2 :          sum <fx> in f : Xe[fx, 4] >= D[4];
\ subto c3 :         forall <dx> in d with dx < 4 :                 sum <fx, dx> in fd :                         Xe[fx, dx] >= 
\ D[dx] - Xne[dx];
\ subto c4 :         forall <dx> in d :                 sum <fx, dx> in fd :                          Xe[fx, dx] <= D[dx];
\Problem name: file
Minimize
 custo:  +50 Xe#1#1 +10 Xe#1#2 +70 Xe#1#3 +30 Xe#1#4 +60 Xe#2#1 +40 Xe#2#2
  +60 Xe#2#3 +20 Xe#2#4 +0.5 Xne#1 +0.3 Xne#2 +0.2 Xne#3
Subject to
 c1_1:
  + Xe#1#4 + Xe#1#3 + Xe#1#2 + Xe#1#1 <= 80000
 c1_2:
  + Xe#2#4 + Xe#2#3 + Xe#2#2 + Xe#2#1 <= 65000
 c2_1:
  + Xe#2#4 + Xe#1#4 >= 50000
 c3_1:
  + Xne#1 + Xe#2#1 + Xe#1#1 >= 75000
 c3_2:
  + Xne#2 + Xe#2#2 + Xe#1#2 >= 20000
 c3_3:
  + Xne#3 + Xe#2#3 + Xe#1#3 >= 30000
 c4_1:
  + Xe#2#1 + Xe#1#1 <= 75000
 c4_2:
  + Xe#2#2 + Xe#1#2 <= 20000
 c4_3:
  + Xe#2#3 + Xe#1#3 <= 30000
 c4_4:
  + Xe#2#4 + Xe#1#4 <= 50000
Bounds
 0 <= Xe#1#1 <= +inf
 0 <= Xe#1#2 <= +inf
 0 <= Xe#1#3 <= +inf
 0 <= Xe#1#4 <= +inf
 0 <= Xe#2#1 <= +inf
 0 <= Xe#2#2 <= +inf
 0 <= Xe#2#3 <= +inf
 0 <= Xe#2#4 <= +inf
 0 <= Xne#1 <= +inf
 0 <= Xne#2 <= +inf
 0 <= Xne#3 <= +inf
End
